NAME           C:\Bruker\Hvattum\knapsack\Problems\class1\100-5-03.mps
ROWS
 N  OBJ
 L  CONSTR1
 L  CONSTR2
 L  CONSTR3
 L  CONSTR4
 L  CONSTR5
COLUMNS
    INT0001   'MARKER'  'INTORG'
    X1        OBJ       771
    X1        CONSTR1   563
    X1        CONSTR2   588
    X1        CONSTR3   84
    X1        CONSTR4   728
    X1        CONSTR5   1000
    X2        OBJ       509
    X2        CONSTR1   659
    X2        CONSTR2   89
    X2        CONSTR3   258
    X2        CONSTR4   593
    X2        CONSTR5   637
    X3        OBJ       640
    X3        CONSTR1   144
    X3        CONSTR2   884
    X3        CONSTR3   463
    X3        CONSTR4   698
    X3        CONSTR5   396
    X4        OBJ       509
    X4        CONSTR1   345
    X4        CONSTR2   128
    X4        CONSTR3   654
    X4        CONSTR4   258
    X4        CONSTR5   715
    X5        OBJ       641
    X5        CONSTR1   188
    X5        CONSTR2   202
    X5        CONSTR3   834
    X5        CONSTR4   459
    X5        CONSTR5   62
    X6        OBJ       626
    X6        CONSTR1   345
    X6        CONSTR2   635
    X6        CONSTR3   545
    X6        CONSTR4   210
    X6        CONSTR5   136
    X7        OBJ       640
    X7        CONSTR1   585
    X7        CONSTR2   29
    X7        CONSTR3   277
    X7        CONSTR4   433
    X7        CONSTR5   727
    X8        OBJ       891
    X8        CONSTR1   400
    X8        CONSTR2   730
    X8        CONSTR3   781
    X8        CONSTR4   564
    X8        CONSTR5   187
    X9        OBJ       960
    X9        CONSTR1   396
    X9        CONSTR2   968
    X9        CONSTR3   961
    X9        CONSTR4   782
    X9        CONSTR5   892
    X10       OBJ       928
    X10       CONSTR1   425
    X10       CONSTR2   426
    X10       CONSTR3   531
    X10       CONSTR4   795
    X10       CONSTR5   872
    X11       OBJ       975
    X11       CONSTR1   393
    X11       CONSTR2   101
    X11       CONSTR3   664
    X11       CONSTR4   920
    X11       CONSTR5   701
    X12       OBJ       843
    X12       CONSTR1   392
    X12       CONSTR2   987
    X12       CONSTR3   259
    X12       CONSTR4   417
    X12       CONSTR5   61
    X13       OBJ       654
    X13       CONSTR1   864
    X13       CONSTR2   624
    X13       CONSTR3   334
    X13       CONSTR4   190
    X13       CONSTR5   836
    X14       OBJ       856
    X14       CONSTR1   460
    X14       CONSTR2   911
    X14       CONSTR3   589
    X14       CONSTR4   104
    X14       CONSTR5   112
    X15       OBJ       612
    X15       CONSTR1   874
    X15       CONSTR2   580
    X15       CONSTR3   388
    X15       CONSTR4   40
    X15       CONSTR5   768
    X16       OBJ       871
    X16       CONSTR1   949
    X16       CONSTR2   306
    X16       CONSTR3   857
    X16       CONSTR4   211
    X16       CONSTR5   538
    X17       OBJ       731
    X17       CONSTR1   969
    X17       CONSTR2   536
    X17       CONSTR3   792
    X17       CONSTR4   717
    X17       CONSTR5   494
    X18       OBJ       720
    X18       CONSTR1   774
    X18       CONSTR2   132
    X18       CONSTR3   905
    X18       CONSTR4   602
    X18       CONSTR5   801
    X19       OBJ       771
    X19       CONSTR1   106
    X19       CONSTR2   370
    X19       CONSTR3   213
    X19       CONSTR4   969
    X19       CONSTR5   327
    X20       OBJ       810
    X20       CONSTR1   198
    X20       CONSTR2   691
    X20       CONSTR3   749
    X20       CONSTR4   927
    X20       CONSTR5   67
    X21       OBJ       1047
    X21       CONSTR1   987
    X21       CONSTR2   739
    X21       CONSTR3   277
    X21       CONSTR4   585
    X21       CONSTR5   973
    X22       OBJ       713
    X22       CONSTR1   234
    X22       CONSTR2   75
    X22       CONSTR3   31
    X22       CONSTR4   191
    X22       CONSTR5   711
    X23       OBJ       574
    X23       CONSTR1   770
    X23       CONSTR2   427
    X23       CONSTR3   178
    X23       CONSTR4   614
    X23       CONSTR5   670
    X24       OBJ       557
    X24       CONSTR1   870
    X24       CONSTR2   500
    X24       CONSTR3   620
    X24       CONSTR4   181
    X24       CONSTR5   478
    X25       OBJ       697
    X25       CONSTR1   933
    X25       CONSTR2   237
    X25       CONSTR3   690
    X25       CONSTR4   842
    X25       CONSTR5   9
    X26       OBJ       660
    X26       CONSTR1   599
    X26       CONSTR2   945
    X26       CONSTR3   916
    X26       CONSTR4   11
    X26       CONSTR5   373
    X27       OBJ       812
    X27       CONSTR1   866
    X27       CONSTR2   180
    X27       CONSTR3   205
    X27       CONSTR4   620
    X27       CONSTR5   823
    X28       OBJ       384
    X28       CONSTR1   512
    X28       CONSTR2   256
    X28       CONSTR3   138
    X28       CONSTR4   449
    X28       CONSTR5   417
    X29       OBJ       714
    X29       CONSTR1   99
    X29       CONSTR2   272
    X29       CONSTR3   355
    X29       CONSTR4   53
    X29       CONSTR5   362
    X30       OBJ       967
    X30       CONSTR1   848
    X30       CONSTR2   376
    X30       CONSTR3   224
    X30       CONSTR4   620
    X30       CONSTR5   904
    X31       OBJ       761
    X31       CONSTR1   350
    X31       CONSTR2   836
    X31       CONSTR3   696
    X31       CONSTR4   64
    X31       CONSTR5   722
    X32       OBJ       722
    X32       CONSTR1   244
    X32       CONSTR2   657
    X32       CONSTR3   994
    X32       CONSTR4   495
    X32       CONSTR5   471
    X33       OBJ       1026
    X33       CONSTR1   965
    X33       CONSTR2   714
    X33       CONSTR3   302
    X33       CONSTR4   627
    X33       CONSTR5   129
    X34       OBJ       850
    X34       CONSTR1   388
    X34       CONSTR2   632
    X34       CONSTR3   441
    X34       CONSTR4   704
    X34       CONSTR5   907
    X35       OBJ       1077
    X35       CONSTR1   217
    X35       CONSTR2   730
    X35       CONSTR3   863
    X35       CONSTR4   618
    X35       CONSTR5   765
    X36       OBJ       627
    X36       CONSTR1   915
    X36       CONSTR2   16
    X36       CONSTR3   229
    X36       CONSTR4   440
    X36       CONSTR5   821
    X37       OBJ       729
    X37       CONSTR1   669
    X37       CONSTR2   218
    X37       CONSTR3   959
    X37       CONSTR4   73
    X37       CONSTR5   110
    X38       OBJ       511
    X38       CONSTR1   314
    X38       CONSTR2   179
    X38       CONSTR3   321
    X38       CONSTR4   72
    X38       CONSTR5   184
    X39       OBJ       929
    X39       CONSTR1   915
    X39       CONSTR2   523
    X39       CONSTR3   327
    X39       CONSTR4   574
    X39       CONSTR5   572
    X40       OBJ       561
    X40       CONSTR1   492
    X40       CONSTR2   508
    X40       CONSTR3   108
    X40       CONSTR4   719
    X40       CONSTR5   340
    X41       OBJ       966
    X41       CONSTR1   739
    X41       CONSTR2   846
    X41       CONSTR3   459
    X41       CONSTR4   918
    X41       CONSTR5   281
    X42       OBJ       310
    X42       CONSTR1   58
    X42       CONSTR2   114
    X42       CONSTR3   816
    X42       CONSTR4   321
    X42       CONSTR5   202
    X43       OBJ       1086
    X43       CONSTR1   628
    X43       CONSTR2   536
    X43       CONSTR3   394
    X43       CONSTR4   661
    X43       CONSTR5   848
    X44       OBJ       832
    X44       CONSTR1   444
    X44       CONSTR2   684
    X44       CONSTR3   518
    X44       CONSTR4   506
    X44       CONSTR5   980
    X45       OBJ       700
    X45       CONSTR1   632
    X45       CONSTR2   95
    X45       CONSTR3   6
    X45       CONSTR4   46
    X45       CONSTR5   738
    X46       OBJ       564
    X46       CONSTR1   475
    X46       CONSTR2   698
    X46       CONSTR3   169
    X46       CONSTR4   711
    X46       CONSTR5   282
    X47       OBJ       602
    X47       CONSTR1   598
    X47       CONSTR2   977
    X47       CONSTR3   231
    X47       CONSTR4   309
    X47       CONSTR5   327
    X48       OBJ       1046
    X48       CONSTR1   752
    X48       CONSTR2   621
    X48       CONSTR3   425
    X48       CONSTR4   864
    X48       CONSTR5   909
    X49       OBJ       854
    X49       CONSTR1   493
    X49       CONSTR2   495
    X49       CONSTR3   643
    X49       CONSTR4   273
    X49       CONSTR5   303
    X50       OBJ       489
    X50       CONSTR1   928
    X50       CONSTR2   670
    X50       CONSTR3   565
    X50       CONSTR4   160
    X50       CONSTR5   79
    X51       OBJ       505
    X51       CONSTR1   52
    X51       CONSTR2   477
    X51       CONSTR3   460
    X51       CONSTR4   805
    X51       CONSTR5   623
    X52       OBJ       577
    X52       CONSTR1   114
    X52       CONSTR2   490
    X52       CONSTR3   9
    X52       CONSTR4   287
    X52       CONSTR5   917
    X53       OBJ       608
    X53       CONSTR1   58
    X53       CONSTR2   800
    X53       CONSTR3   431
    X53       CONSTR4   435
    X53       CONSTR5   649
    X54       OBJ       445
    X54       CONSTR1   106
    X54       CONSTR2   116
    X54       CONSTR3   18
    X54       CONSTR4   888
    X54       CONSTR5   773
    X55       OBJ       747
    X55       CONSTR1   876
    X55       CONSTR2   236
    X55       CONSTR3   443
    X55       CONSTR4   311
    X55       CONSTR5   490
    X56       OBJ       791
    X56       CONSTR1   165
    X56       CONSTR2   134
    X56       CONSTR3   617
    X56       CONSTR4   251
    X56       CONSTR5   640
    X57       OBJ       543
    X57       CONSTR1   645
    X57       CONSTR2   772
    X57       CONSTR3   276
    X57       CONSTR4   289
    X57       CONSTR5   101
    X58       OBJ       403
    X58       CONSTR1   133
    X58       CONSTR2   567
    X58       CONSTR3   97
    X58       CONSTR4   650
    X58       CONSTR5   145
    X59       OBJ       703
    X59       CONSTR1   86
    X59       CONSTR2   906
    X59       CONSTR3   238
    X59       CONSTR4   867
    X59       CONSTR5   935
    X60       OBJ       914
    X60       CONSTR1   881
    X60       CONSTR2   515
    X60       CONSTR3   460
    X60       CONSTR4   390
    X60       CONSTR5   211
    X61       OBJ       836
    X61       CONSTR1   640
    X61       CONSTR2   516
    X61       CONSTR3   359
    X61       CONSTR4   961
    X61       CONSTR5   59
    X62       OBJ       925
    X62       CONSTR1   18
    X62       CONSTR2   656
    X62       CONSTR3   594
    X62       CONSTR4   978
    X62       CONSTR5   986
    X63       OBJ       437
    X63       CONSTR1   449
    X63       CONSTR2   636
    X63       CONSTR3   738
    X63       CONSTR4   79
    X63       CONSTR5   103
    X64       OBJ       542
    X64       CONSTR1   596
    X64       CONSTR2   624
    X64       CONSTR3   42
    X64       CONSTR4   51
    X64       CONSTR5   854
    X65       OBJ       1158
    X65       CONSTR1   705
    X65       CONSTR2   897
    X65       CONSTR3   464
    X65       CONSTR4   446
    X65       CONSTR5   832
    X66       OBJ       691
    X66       CONSTR1   702
    X66       CONSTR2   515
    X66       CONSTR3   80
    X66       CONSTR4   707
    X66       CONSTR5   376
    X67       OBJ       849
    X67       CONSTR1   714
    X67       CONSTR2   584
    X67       CONSTR3   836
    X67       CONSTR4   568
    X67       CONSTR5   706
    X68       OBJ       927
    X68       CONSTR1   743
    X68       CONSTR2   940
    X68       CONSTR3   244
    X68       CONSTR4   848
    X68       CONSTR5   677
    X69       OBJ       903
    X69       CONSTR1   960
    X69       CONSTR2   299
    X69       CONSTR3   564
    X69       CONSTR4   941
    X69       CONSTR5   580
    X70       OBJ       864
    X70       CONSTR1   663
    X70       CONSTR2   578
    X70       CONSTR3   548
    X70       CONSTR4   419
    X70       CONSTR5   121
    X71       OBJ       669
    X71       CONSTR1   476
    X71       CONSTR2   774
    X71       CONSTR3   774
    X71       CONSTR4   367
    X71       CONSTR5   189
    X72       OBJ       724
    X72       CONSTR1   804
    X72       CONSTR2   805
    X72       CONSTR3   822
    X72       CONSTR4   814
    X72       CONSTR5   13
    X73       OBJ       720
    X73       CONSTR1   554
    X73       CONSTR2   277
    X73       CONSTR3   20
    X73       CONSTR4   699
    X73       CONSTR5   67
    X74       OBJ       570
    X74       CONSTR1   482
    X74       CONSTR2   500
    X74       CONSTR3   410
    X74       CONSTR4   544
    X74       CONSTR5   607
    X75       OBJ       840
    X75       CONSTR1   974
    X75       CONSTR2   56
    X75       CONSTR3   327
    X75       CONSTR4   44
    X75       CONSTR5   477
    X76       OBJ       358
    X76       CONSTR1   672
    X76       CONSTR2   191
    X76       CONSTR3   327
    X76       CONSTR4   322
    X76       CONSTR5   175
    X77       OBJ       565
    X77       CONSTR1   464
    X77       CONSTR2   333
    X77       CONSTR3   755
    X77       CONSTR4   371
    X77       CONSTR5   724
    X78       OBJ       639
    X78       CONSTR1   357
    X78       CONSTR2   692
    X78       CONSTR3   870
    X78       CONSTR4   753
    X78       CONSTR5   411
    X79       OBJ       658
    X79       CONSTR1   111
    X79       CONSTR2   299
    X79       CONSTR3   678
    X79       CONSTR4   252
    X79       CONSTR5   543
    X80       OBJ       851
    X80       CONSTR1   284
    X80       CONSTR2   206
    X80       CONSTR3   193
    X80       CONSTR4   969
    X80       CONSTR5   910
    X81       OBJ       639
    X81       CONSTR1   775
    X81       CONSTR2   940
    X81       CONSTR3   163
    X81       CONSTR4   281
    X81       CONSTR5   619
    X82       OBJ       492
    X82       CONSTR1   25
    X82       CONSTR2   281
    X82       CONSTR3   92
    X82       CONSTR4   925
    X82       CONSTR5   312
    X83       OBJ       749
    X83       CONSTR1   506
    X83       CONSTR2   627
    X83       CONSTR3   973
    X83       CONSTR4   34
    X83       CONSTR5   695
    X84       OBJ       761
    X84       CONSTR1   899
    X84       CONSTR2   993
    X84       CONSTR3   312
    X84       CONSTR4   910
    X84       CONSTR5   328
    X85       OBJ       682
    X85       CONSTR1   766
    X85       CONSTR2   90
    X85       CONSTR3   380
    X85       CONSTR4   63
    X85       CONSTR5   455
    X86       OBJ       740
    X86       CONSTR1   155
    X86       CONSTR2   529
    X86       CONSTR3   682
    X86       CONSTR4   780
    X86       CONSTR5   671
    X87       OBJ       779
    X87       CONSTR1   785
    X87       CONSTR2   840
    X87       CONSTR3   390
    X87       CONSTR4   663
    X87       CONSTR5   213
    X88       OBJ       601
    X88       CONSTR1   164
    X88       CONSTR2   516
    X88       CONSTR3   5
    X88       CONSTR4   387
    X88       CONSTR5   526
    X89       OBJ       668
    X89       CONSTR1   970
    X89       CONSTR2   655
    X89       CONSTR3   273
    X89       CONSTR4   955
    X89       CONSTR5   282
    X90       OBJ       866
    X90       CONSTR1   846
    X90       CONSTR2   564
    X90       CONSTR3   551
    X90       CONSTR4   230
    X90       CONSTR5   590
    X91       OBJ       645
    X91       CONSTR1   563
    X91       CONSTR2   154
    X91       CONSTR3   670
    X91       CONSTR4   425
    X91       CONSTR5   606
    X92       OBJ       550
    X92       CONSTR1   813
    X92       CONSTR2   20
    X92       CONSTR3   464
    X92       CONSTR4   152
    X92       CONSTR5   908
    X93       OBJ       967
    X93       CONSTR1   289
    X93       CONSTR2   625
    X93       CONSTR3   643
    X93       CONSTR4   468
    X93       CONSTR5   340
    X94       OBJ       890
    X94       CONSTR1   874
    X94       CONSTR2   897
    X94       CONSTR3   392
    X94       CONSTR4   239
    X94       CONSTR5   40
    X95       OBJ       707
    X95       CONSTR1   462
    X95       CONSTR2   981
    X95       CONSTR3   51
    X95       CONSTR4   956
    X95       CONSTR5   560
    X96       OBJ       804
    X96       CONSTR1   851
    X96       CONSTR2   1000
    X96       CONSTR3   200
    X96       CONSTR4   78
    X96       CONSTR5   567
    X97       OBJ       822
    X97       CONSTR1   663
    X97       CONSTR2   633
    X97       CONSTR3   98
    X97       CONSTR4   696
    X97       CONSTR5   94
    X98       OBJ       475
    X98       CONSTR1   667
    X98       CONSTR2   307
    X98       CONSTR3   158
    X98       CONSTR4   912
    X98       CONSTR5   218
    X99       OBJ       353
    X99       CONSTR1   67
    X99       CONSTR2   220
    X99       CONSTR3   375
    X99       CONSTR4   787
    X99       CONSTR5   43
    X100      OBJ       830
    X100      CONSTR1   355
    X100      CONSTR2   61
    X100      CONSTR3   714
    X100      CONSTR4   419
    X100      CONSTR5   825
    INT0001   'MARKER'  'INTEND'
RHS
    RHS10001  CONSTR1   13486
    RHS10001  CONSTR2   12749
    RHS10001  CONSTR3   11130
    RHS10001  CONSTR4   12651
    RHS10001  CONSTR5   12451
BOUNDS
 BV BND       X1        .00
 BV BND       X2        .00
 BV BND       X3        .00
 BV BND       X4        .00
 BV BND       X5        .00
 BV BND       X6        .00
 BV BND       X7        .00
 BV BND       X8        .00
 BV BND       X9        .00
 BV BND       X10       .00
 BV BND       X11       .00
 BV BND       X12       .00
 BV BND       X13       .00
 BV BND       X14       .00
 BV BND       X15       .00
 BV BND       X16       .00
 BV BND       X17       .00
 BV BND       X18       .00
 BV BND       X19       .00
 BV BND       X20       .00
 BV BND       X21       .00
 BV BND       X22       .00
 BV BND       X23       .00
 BV BND       X24       .00
 BV BND       X25       .00
 BV BND       X26       .00
 BV BND       X27       .00
 BV BND       X28       .00
 BV BND       X29       .00
 BV BND       X30       .00
 BV BND       X31       .00
 BV BND       X32       .00
 BV BND       X33       .00
 BV BND       X34       .00
 BV BND       X35       .00
 BV BND       X36       .00
 BV BND       X37       .00
 BV BND       X38       .00
 BV BND       X39       .00
 BV BND       X40       .00
 BV BND       X41       .00
 BV BND       X42       .00
 BV BND       X43       .00
 BV BND       X44       .00
 BV BND       X45       .00
 BV BND       X46       .00
 BV BND       X47       .00
 BV BND       X48       .00
 BV BND       X49       .00
 BV BND       X50       .00
 BV BND       X51       .00
 BV BND       X52       .00
 BV BND       X53       .00
 BV BND       X54       .00
 BV BND       X55       .00
 BV BND       X56       .00
 BV BND       X57       .00
 BV BND       X58       .00
 BV BND       X59       .00
 BV BND       X60       .00
 BV BND       X61       .00
 BV BND       X62       .00
 BV BND       X63       .00
 BV BND       X64       .00
 BV BND       X65       .00
 BV BND       X66       .00
 BV BND       X67       .00
 BV BND       X68       .00
 BV BND       X69       .00
 BV BND       X70       .00
 BV BND       X71       .00
 BV BND       X72       .00
 BV BND       X73       .00
 BV BND       X74       .00
 BV BND       X75       .00
 BV BND       X76       .00
 BV BND       X77       .00
 BV BND       X78       .00
 BV BND       X79       .00
 BV BND       X80       .00
 BV BND       X81       .00
 BV BND       X82       .00
 BV BND       X83       .00
 BV BND       X84       .00
 BV BND       X85       .00
 BV BND       X86       .00
 BV BND       X87       .00
 BV BND       X88       .00
 BV BND       X89       .00
 BV BND       X90       .00
 BV BND       X91       .00
 BV BND       X92       .00
 BV BND       X93       .00
 BV BND       X94       .00
 BV BND       X95       .00
 BV BND       X96       .00
 BV BND       X97       .00
 BV BND       X98       .00
 BV BND       X99       .00
 BV BND       X100      .00
ENDATA
